nK = 821;
nT = 4;
nI = 7;
L = 29;
TT = 184;
np = 1;
nc = 3;
b = [54, 33, 49, 31, 51, 49, 60];
d = [129, 122, 82, 140, 105, 97, 143];
m = [2.2, 2, 1.5, 1.2, 2, 1.1, 1.7];
pt = [0.29, 0.32, 0.21, 0.21];
st = [13.92, 18.24, 12.6, 11.55];
arc = {<1, 0, 1, 1, 0, 0, 0, [1, 1, 1, 1]>, <2, 1, 2, 1, 0, 0, 0, [1, 1, 1, 1]>, <3, 2, 3, 1, 0, 0, 0, [1, 1, 1, 1]>, <4, 3, 4, 1, 0, 0, 0, [1, 1, 1, 1]>, <5, 4, 5, 1, 0, 0, 0, [1, 1, 1, 1]>, <6, 5, 6, 1, 0, 0, 0, [1, 1, 1, 1]>, <7, 6, 7, 1, 0, 0, 0, [1, 1, 1, 1]>, <8, 7, 8, 1, 0, 0, 0, [1, 1, 1, 1]>, <9, 8, 9, 1, 0, 0, 0, [1, 1, 1, 1]>, <10, 9, 10, 1, 0, 0, 0, [1, 1, 1, 1]>, <11, 10, 11, 1, 0, 0, 0, [1, 1, 1, 1]>, <12, 11, 12, 1, 0, 0, 0, [1, 1, 1, 1]>, <13, 12, 13, 1, 0, 0, 0, [1, 1, 1, 1]>, <14, 13, 14, 1, 0, 0, 0, [1, 1, 1, 1]>, <15, 14, 15, 1, 0, 0, 0, [1, 1, 1, 1]>, <16, 15, 16, 1, 0, 0, 0, [1, 1, 1, 1]>, <17, 16, 17, 1, 0, 0, 0, [1, 1, 1, 1]>, <18, 17, 18, 1, 0, 0, 0, [1, 1, 1, 1]>, <19, 18, 19, 1, 0, 0, 0, [1, 1, 1, 1]>, <20, 19, 20, 1, 0, 0, 0, [1, 1, 1, 1]>, <21, 20, 21, 1, 0, 0, 0, [1, 1, 1, 1]>, <22, 21, 22, 1, 0, 0, 0, [1, 1, 1, 1]>, <23, 22, 23, 1, 0, 0, 0, [1, 1, 1, 1]>, <24, 23, 24, 1, 0, 0, 0, [1, 1, 1, 1]>, <25, 24, 25, 1, 0, 0, 0, [1, 1, 1, 1]>, <26, 25, 26, 1, 0, 0, 0, [1, 1, 1, 1]>, <27, 26, 27, 1, 0, 0, 0, [1, 1, 1, 1]>, <28, 27, 28, 1, 0, 0, 0, [1, 1, 1, 1]>, <29, 28, 29, 1, 0, 0, 0, [1, 1, 1, 1]>, <30, 0, 13, 13, 1, 1, 0, [1, 0, 1, 1]>, <31, 1, 14, 13, 1, 1, 0, [1, 0, 1, 1]>, <32, 2, 15, 13, 1, 1, 0, [1, 0, 1, 1]>, <33, 3, 16, 13, 1, 1, 0, [1, 0, 1, 1]>, <34, 4, 17, 13, 1, 1, 0, [1, 0, 1, 1]>, <35, 5, 18, 13, 1, 1, 0, [1, 0, 1, 1]>, <36, 7, 20, 13, 1, 1, 0, [1, 0, 1, 1]>, <37, 8, 21, 13, 1, 1, 0, [1, 0, 1, 1]>, <38, 9, 22, 13, 1, 1, 0, [1, 0, 1, 1]>, <39, 10, 23, 13, 1, 1, 0, [1, 0, 1, 1]>, <40, 11, 24, 13, 1, 1, 0, [1, 0, 1, 1]>, <41, 12, 25, 13, 1, 1, 0, [1, 0, 1, 1]>, <42, 13, 26, 13, 1, 1, 0, [1, 0, 1, 1]>, <43, 14, 27, 13, 1, 1, 0, [1, 0, 1, 1]>, <44, 15, 28, 13, 1, 1, 0, [1, 0, 1, 1]>, <45, 16, 29, 13, 1, 1, 0, [1, 0, 1, 1]>, <46, 0, 14, 14, 2, 0, 1, [1, 1, 0, 1]>, <47, 1, 15, 14, 2, 0, 1, [1, 1, 0, 1]>, <48, 2, 16, 14, 2, 0, 1, [1, 1, 0, 1]>, <49, 3, 17, 14, 2, 0, 1, [1, 1, 0, 1]>, <50, 4, 18, 14, 2, 0, 1, [1, 1, 0, 1]>, <51, 5, 19, 14, 2, 0, 1, [1, 1, 0, 1]>, <52, 6, 20, 14, 2, 0, 1, [1, 1, 0, 1]>, <53, 7, 21, 14, 2, 0, 1, [1, 1, 0, 1]>, <54, 8, 22, 14, 2, 0, 1, [1, 1, 0, 1]>, <55, 9, 23, 14, 2, 0, 1, [1, 1, 0, 1]>, <56, 10, 24, 14, 2, 0, 1, [1, 1, 0, 1]>, <57, 11, 25, 14, 2, 0, 1, [1, 1, 0, 1]>, <58, 12, 26, 14, 2, 0, 1, [1, 1, 0, 1]>, <59, 13, 27, 14, 2, 0, 1, [1, 1, 0, 1]>, <60, 14, 28, 14, 2, 0, 1, [1, 1, 0, 1]>, <61, 15, 29, 14, 2, 0, 1, [1, 1, 0, 1]>, <62, 0, 14, 14, 3, 0, 0, [1, 0, 1, 1]>, <63, 1, 15, 14, 3, 0, 0, [1, 0, 1, 1]>, <64, 2, 16, 14, 3, 0, 0, [1, 0, 1, 1]>, <65, 3, 17, 14, 3, 0, 0, [1, 0, 1, 1]>, <66, 4, 18, 14, 3, 0, 0, [1, 0, 1, 1]>, <67, 5, 19, 14, 3, 0, 0, [1, 0, 1, 1]>, <68, 6, 20, 14, 3, 0, 0, [1, 0, 1, 1]>, <69, 7, 21, 14, 3, 0, 0, [1, 0, 1, 1]>, <70, 8, 22, 14, 3, 0, 0, [1, 0, 1, 1]>, <71, 9, 23, 14, 3, 0, 0, [1, 0, 1, 1]>, <72, 10, 24, 14, 3, 0, 0, [1, 0, 1, 1]>, <73, 11, 25, 14, 3, 0, 0, [1, 0, 1, 1]>, <74, 12, 26, 14, 3, 0, 0, [1, 0, 1, 1]>, <75, 13, 27, 14, 3, 0, 0, [1, 0, 1, 1]>, <76, 14, 28, 14, 3, 0, 0, [1, 0, 1, 1]>, <77, 15, 29, 14, 3, 0, 0, [1, 0, 1, 1]>, <78, 0, 13, 13, 4, 0, 1, [1, 0, 1, 1]>, <79, 1, 14, 13, 4, 0, 1, [1, 0, 1, 1]>, <80, 2, 15, 13, 4, 0, 1, [1, 0, 1, 1]>, <81, 3, 16, 13, 4, 0, 1, [1, 0, 1, 1]>, <82, 4, 17, 13, 4, 0, 1, [1, 0, 1, 1]>, <83, 5, 18, 13, 4, 0, 1, [1, 0, 1, 1]>, <84, 7, 20, 13, 4, 0, 1, [1, 0, 1, 1]>, <85, 8, 21, 13, 4, 0, 1, [1, 0, 1, 1]>, <86, 9, 22, 13, 4, 0, 1, [1, 0, 1, 1]>, <87, 10, 23, 13, 4, 0, 1, [1, 0, 1, 1]>, <88, 11, 24, 13, 4, 0, 1, [1, 0, 1, 1]>, <89, 12, 25, 13, 4, 0, 1, [1, 0, 1, 1]>, <90, 13, 26, 13, 4, 0, 1, [1, 0, 1, 1]>, <91, 14, 27, 13, 4, 0, 1, [1, 0, 1, 1]>, <92, 15, 28, 13, 4, 0, 1, [1, 0, 1, 1]>, <93, 16, 29, 13, 4, 0, 1, [1, 0, 1, 1]>, <94, 0, 13, 13, 5, 0, 0, [0, 1, 1, 1]>, <95, 1, 14, 13, 5, 0, 0, [0, 1, 1, 1]>, <96, 2, 15, 13, 5, 0, 0, [0, 1, 1, 1]>, <97, 3, 16, 13, 5, 0, 0, [0, 1, 1, 1]>, <98, 4, 17, 13, 5, 0, 0, [0, 1, 1, 1]>, <99, 5, 18, 13, 5, 0, 0, [0, 1, 1, 1]>, <100, 7, 20, 13, 5, 0, 0, [0, 1, 1, 1]>, <101, 8, 21, 13, 5, 0, 0, [0, 1, 1, 1]>, <102, 9, 22, 13, 5, 0, 0, [0, 1, 1, 1]>, <103, 10, 23, 13, 5, 0, 0, [0, 1, 1, 1]>, <104, 11, 24, 13, 5, 0, 0, [0, 1, 1, 1]>, <105, 12, 25, 13, 5, 0, 0, [0, 1, 1, 1]>, <106, 13, 26, 13, 5, 0, 0, [0, 1, 1, 1]>, <107, 14, 27, 13, 5, 0, 0, [0, 1, 1, 1]>, <108, 15, 28, 13, 5, 0, 0, [0, 1, 1, 1]>, <109, 16, 29, 13, 5, 0, 0, [0, 1, 1, 1]>, <110, 1, 12, 11, 6, 0, 0, [1, 0, 1, 1]>, <111, 2, 13, 11, 6, 0, 0, [1, 0, 1, 1]>, <112, 3, 14, 11, 6, 0, 0, [1, 0, 1, 1]>, <113, 4, 15, 11, 6, 0, 0, [1, 0, 1, 1]>, <114, 5, 16, 11, 6, 0, 0, [1, 0, 1, 1]>, <115, 9, 20, 11, 6, 0, 0, [1, 0, 1, 1]>, <116, 10, 21, 11, 6, 0, 0, [1, 0, 1, 1]>, <117, 11, 22, 11, 6, 0, 0, [1, 0, 1, 1]>, <118, 12, 23, 11, 6, 0, 0, [1, 0, 1, 1]>, <119, 13, 24, 11, 6, 0, 0, [1, 0, 1, 1]>, <120, 14, 25, 11, 6, 0, 0, [1, 0, 1, 1]>, <121, 15, 26, 11, 6, 0, 0, [1, 0, 1, 1]>, <122, 16, 27, 11, 6, 0, 0, [1, 0, 1, 1]>, <123, 17, 28, 11, 6, 0, 0, [1, 0, 1, 1]>, <124, 18, 29, 11, 6, 0, 0, [1, 0, 1, 1]>, <125, 0, 12, 12, 7, 1, 0, [1, 0, 1, 1]>, <126, 1, 13, 12, 7, 1, 0, [1, 0, 1, 1]>, <127, 2, 14, 12, 7, 1, 0, [1, 0, 1, 1]>, <128, 3, 15, 12, 7, 1, 0, [1, 0, 1, 1]>, <129, 4, 16, 12, 7, 1, 0, [1, 0, 1, 1]>, <130, 5, 17, 12, 7, 1, 0, [1, 0, 1, 1]>, <131, 8, 20, 12, 7, 1, 0, [1, 0, 1, 1]>, <132, 9, 21, 12, 7, 1, 0, [1, 0, 1, 1]>, <133, 10, 22, 12, 7, 1, 0, [1, 0, 1, 1]>, <134, 11, 23, 12, 7, 1, 0, [1, 0, 1, 1]>, <135, 12, 24, 12, 7, 1, 0, [1, 0, 1, 1]>, <136, 13, 25, 12, 7, 1, 0, [1, 0, 1, 1]>, <137, 14, 26, 12, 7, 1, 0, [1, 0, 1, 1]>, <138, 15, 27, 12, 7, 1, 0, [1, 0, 1, 1]>, <139, 16, 28, 12, 7, 1, 0, [1, 0, 1, 1]>, <140, 17, 29, 12, 7, 1, 0, [1, 0, 1, 1]>};
